p cnf 3180 2807
c ind 1617 1618 1619 1620 1621 1622 1623 1624 1625 1626 0
c ind 1627 1628 1629 1630 1631 1632 1633 1634 1635 1636 0
c ind 1637 1638 1639 1640 1641 1642 1643 1644 1645 1646 0
c ind 1647 1648 1649 1650 1651 1652 1653 1654 1655 1656 0
c ind 1657 1658 1659 1660 965 966 967 968 969 970 0
c ind 971 972 973 974 975 976 977 978 979 980 0
c ind 981 982 983 984 985 986 987 988 989 990 0
c ind 991 992 993 994 995 996 997 998 999 1000 0
c ind 1001 1002 1003 1004 1005 1006 1007 1008 1009 1010 0
c ind 1684 1685 1686 1687 1688 1689 1690 1691 1692 1693 0
c ind 1694 1695 1696 1697 1698 1699 1700 1701 1702 1703 0
c ind 1704 1705 1706 1707 1708 1709 1710 1711 1712 1713 0
c ind 1714 1715 1716 1717 1718 1719 1720 1721 1722 1723 0
c ind 1724 1725 1726 1727 1728 1729 1730 1731 1732 1733 0
c ind 1734 1735 1736 1737 1738 1739 1740 1741 1742 1743 0
c ind 1744 1745 1746 1747 1748 1749 1750 1751 1752 1753 0
c ind 1754 1755 1756 1757 1758 1759 1760 1761 1762 1763 0
c ind 1764 1765 1766 1767 1768 1769 1770 1771 1772 1773 0
c ind 1774 1775 1776 1777 1778 1779 1780 1781 1782 1783 0
c ind 1784 1785 1786 1787 1520 1788 1789 1011 1012 1013 0
c ind 1014 1790 1015 1039 1040 1041 1042 1043 1136 1137 0
c ind 1138 1139 1140 1141 1142 1143 1144 1145 1146 1147 0
c ind 1148 1149 1150 1151 1791 1792 1152 1153 1154 1793 0
c ind 1155 1794 1156 1157 1158 1523 1524 1525 1526 1521 0
c ind 1527 1528 1529 1530 1531 1532 1533 1534 1535 1536 0
c ind 1795 1796 1537 1538 1797 1539 1798 1540 1541 1542 0
c ind 1543 1544 1545 1661 1662 1663 1664 1665 1666 1667 0
c ind 1668 1799 1669 1670 1671 1672 1673 1674 1675 1800 0
c ind 1801 1676 1802 1677 1803 1678 1679 1680 1681 1682 0
c ind 1522 1683 1592 1593 1594 1595 1596 1597 1598 1599 0
c ind 1804 1600 1601 1602 1603 1604 1805 1605 1806 1606 0
c ind 1607 1608 1609 1807 1808 1610 1611 1612 1613 1614 0
c ind 1016 1017 1018 1019 1020 1021 1022 1023 1024 1025 0
c ind 1809 1026 1216 1027 1028 1029 1217 1030 1218 1031 0
c ind 1190 1032 1033 1034 1035 1036 1037 1038 1193 1194 0
c ind 1195 1196 1197 1198 1219 1199 1200 1201 1220 1202 0
c ind 1221 1203 1204 1222 1223 1205 1206 1207 1208 1209 0
c ind 1210 1211 1212 1213 1214 1215 1810 1224 1225 1811 0
c ind 1812 1813 1814 1226 1815 1816 1817 1818 1819 1820 0
c ind 1821 1822 1823 1824 1825 1826 1827 1828 1829 1227 0
c ind 1830 1831 1832 929 1228 930 1229 931 1230 1231 0
c ind 932 933 934 935 936 937 938 939 940 941 0
c ind 942 943 944 945 946 1191 947 948 949 950 0
c ind 951 952 1833 1834 1835 1836 1837 1838 1839 1840 0
c ind 1841 1842 1843 1844 1845 1846 1847 1848 1849 1850 0
c ind 1851 1852 1853 1854 1855 1856 1857 1159 1160 1161 0
c ind 1162 1163 1164 1165 1166 1192 1167 1168 1169 1170 0
c ind 1171 1172 1173 1174 1175 1176 1177 1178 1179 1180 0
c ind 1181 1182 1183 1184 1185 1186 1187 1188 1189 1546 0
c ind 1547 1548 1549 1550 1551 1552 1553 1554 1555 1556 0
c ind 1557 1558 1559 1560 1561 1562 1563 1564 1565 1566 0
c ind 1567 1568 1569 1570 1571 1572 1573 1574 1575 1576 0
c ind 1577 1578 1579 1580 1581 1582 1583 1584 1585 1586 0
c ind 1587 1588 1589 1590 1591 1615 1616 0
788 -789 817 0
788 -789 -902 1519 0
788 -789 902 -1519 0
-788 789 0
-817 -902 -788 -1519 0
-817 902 -788 1519 0
789 -790 -804 -816 0
-789 790 0
-789 804 0
-789 816 0
790 791 -795 0
-790 -791 0
-790 795 0
-792 -1152 791 0
-794 -1152 791 0
-793 -1152 791 0
-791 1152 0
-791 792 793 794 0
792 -1158 1523 1524 0
-792 1158 0
-792 -1524 0
-792 -1523 0
793 1158 1525 1526 0
-793 -1158 0
-793 -1526 0
-793 -1525 0
794 -1153 1154 1155 0
-794 1153 0
-794 -1155 0
-794 -1154 0
795 796 800 -1542 -1593 0
-795 1593 0
-795 -800 0
-795 1542 0
-795 -796 0
797 1594 796 1595 1596 0
-796 -797 0
-796 -1596 0
-796 -1594 0
-796 -1595 0
797 798 -1599 0
797 798 799 -1600 0
-797 -798 0
-797 -799 1599 0
-797 1599 1600 0
798 1597 -1598 0
-798 -1597 0
-798 1598 0
799 1605 1606 0
799 1605 1613 1614 0
-799 -1605 0
-799 -1606 -1613 0
-799 -1606 -1614 0
801 1543 800 1544 1545 0
-800 -801 0
-800 -1545 0
-800 -1543 0
-800 -1544 0
801 802 -1663 0
801 802 803 -1664 0
-801 -802 0
-801 -803 1663 0
-801 1663 1664 0
802 1661 -1662 0
-802 -1661 0
-802 1662 0
803 1669 1670 0
803 1669 1677 1678 0
-803 -1669 0
-803 -1670 -1677 0
-803 -1670 -1678 0
804 -805 810 -813 0
-804 805 0
-804 -810 0
-804 813 0
805 807 809 0
805 806 1520 0
805 806 809 0
805 807 1520 0
-806 -807 -805 0
-809 -1520 -805 0
806 -948 -1835 0
-806 948 0
-806 1835 0
807 -808 -1836 1837 0
-807 1836 0
-807 -1837 0
-807 808 0
808 1839 -1840 -1841 1842 0
-808 -1839 0
-808 -1842 0
-808 1841 0
-808 1840 0
809 1810 1811 1812 0
-809 -1810 0
-809 -1812 0
-809 -1811 0
-811 -812 810 -937 0
-811 -812 810 -938 0
-810 812 0
-810 811 0
-810 937 938 0
811 940 941 942 943 0
-811 -943 0
-811 -942 0
-811 -940 0
-811 -941 0
812 -934 -935 -936 939 0
-812 936 0
-812 -939 0
-812 934 0
-812 935 0
813 -814 -815 -993 -1165 0
-813 815 0
-813 993 0
-813 814 0
-813 1165 0
814 -1695 -1724 -1753 0
-814 1695 0
-814 1724 0
-814 1753 0
815 -1550 -1579 -1631 -1660 0
-815 1660 0
-815 1550 0
-815 1631 0
-815 1579 0
816 -1190 1192 0
816 -1191 -1522 0
816 -1190 -1191 0
816 1192 -1522 0
1191 -1192 -816 0
1190 1522 -816 0
817 -818 892 1505 0
817 -818 -892 -1505 0
-817 818 0
-817 892 -1505 0
-817 -892 1505 0
818 -819 882 1510 0
818 -819 -882 -1510 0
-818 819 0
-818 882 -1510 0
-818 -882 1510 0
819 -820 872 960 0
819 -820 -872 -960 0
-819 820 0
-819 872 -960 0
-819 -872 960 0
820 -821 862 1237 0
820 -821 -862 -1237 0
-820 821 0
-820 862 -1237 0
-820 -862 1237 0
821 -861 -822 1490 0
821 861 -822 -1490 0
-821 822 0
-821 -861 -1490 0
-821 861 1490 0
822 -823 -850 0
-822 823 0
-822 850 0
823 -824 -836 0
823 828 -832 -836 0
-823 836 0
824 -828 -823 0
824 832 -823 0
824 -825 -948 0
824 -826 -948 0
-824 948 0
-824 825 826 0
825 951 -1833 0
-825 -951 0
-825 1833 0
826 -827 -1218 1835 0
-826 1218 0
-826 -1835 0
-826 827 0
827 1160 -1162 0
-827 -1160 0
-827 1162 0
828 -830 1520 -1831 0
828 829 1520 1831 0
-828 -1520 0
-828 830 -1831 0
-828 -829 1831 0
829 -1191 -790 0
-829 1191 0
790 -829 0
830 -831 1809 0
829 830 831 0
-830 -831 -1809 0
-829 -830 831 0
831 1203 -1205 0
-831 -1203 0
-831 1205 0
832 835 810 0
830 832 810 -833 0
-810 -832 0
-830 -832 -835 0
-832 833 -835 0
833 834 -1810 0
833 834 -1811 0
833 834 -1812 0
-833 -834 0
-833 1810 1811 1812 0
834 1818 -1820 0
-834 -1818 0
-834 1820 0
835 1216 -1520 0
834 835 -1520 0
-835 1520 0
-834 -835 -1216 0
836 -837 -839 -844 0
836 839 -841 -844 0
-836 844 0
837 -839 -836 0
839 841 -836 0
837 -1226 -1790 0
837 838 -1226 0
-837 1226 0
-837 -838 1790 0
838 -1782 -795 1784 0
-838 1782 0
-838 -1784 0
795 -838 0
839 -930 1027 0
839 840 1027 0
839 -929 1027 0
-839 -1027 0
-839 -840 929 930 0
840 931 1520 1831 1832 0
-840 -1832 0
-840 -1831 0
-840 -931 0
-840 -1520 0
841 843 -795 -1788 0
841 842 -795 843 0
795 -841 0
-841 -843 0
-841 -842 1788 0
842 -1782 1784 0
-842 1782 0
-842 -1784 0
-791 843 1782 0
843 1039 1225 1782 0
-843 -1782 0
-843 -1039 791 0
-843 -1225 791 0
-826 844 -804 0
844 845 -804 0
844 -849 -804 0
804 -844 0
826 -845 -844 849 0
-825 845 -948 0
845 846 -948 0
-845 948 0
825 -845 -846 0
846 847 848 0
808 846 847 -948 0
-846 -847 0
-846 -848 948 0
-808 -846 -848 0
-827 847 1835 0
-847 -1835 0
827 -847 0
848 -1835 -1836 1837 0
-848 1835 0
-848 1836 0
-848 -1837 0
-846 849 -1217 0
-849 1217 0
846 -849 0
850 -813 -851 0
850 -813 859 0
813 -850 0
851 -859 -850 0
-827 851 -858 -1798 0
827 851 -852 -858 0
-851 858 0
-827 -851 1798 0
827 -851 852 0
-825 852 -1797 0
825 852 -853 0
-825 -852 1797 0
825 -852 853 0
853 854 810 857 0
853 854 810 -856 0
-810 -853 0
-853 -854 0
-853 856 -857 0
854 -855 1520 -1831 0
790 854 1520 1831 0
-854 -1520 0
-854 855 -1831 0
-854 1831 -790 0
790 831 855 0
-831 855 1795 0
831 -855 -790 0
-831 -855 -1795 0
-833 855 856 0
833 -856 0
-855 -856 0
834 857 -1520 0
857 -1520 1796 0
-857 1520 0
-834 -857 -1796 0
858 -948 1835 0
-858 948 0
-858 -1835 0
859 860 -948 0
852 853 859 0
853 859 860 0
852 859 -948 0
-853 -859 948 0
-852 -859 -860 0
807 860 -948 -1835 0
-860 948 0
-860 1835 0
-807 -860 0
-838 861 -804 0
804 -861 0
838 -861 0
862 -863 -813 0
862 871 -813 0
813 -862 0
-862 863 -871 0
827 -858 863 -864 0
-827 -858 863 -1794 0
858 -863 0
827 -863 864 0
-827 -863 1794 0
-825 864 -1793 0
825 864 -865 0
-825 -864 1793 0
825 -864 865 0
865 866 810 870 0
865 866 810 -869 0
-810 -865 0
-865 -866 0
-865 869 -870 0
866 867 -1520 1792 0
834 866 867 -1520 0
-866 1520 0
-866 -867 0
-834 -866 -1792 0
-833 867 868 0
833 -867 0
-867 -868 0
-831 868 1791 0
790 831 868 0
831 868 1192 0
-831 -868 -1791 0
831 -868 -790 -1192 0
869 -1192 -790 1831 0
831 869 -790 -1192 0
-869 1192 0
790 -869 0
-831 -869 -1831 0
870 1520 1831 0
870 1520 1791 0
831 870 1520 0
-870 -1520 0
-831 -870 -1791 -1831 0
864 871 -948 0
860 865 871 0
864 865 871 0
860 871 -948 0
-860 -864 -871 0
-865 -871 948 0
872 -873 -813 0
872 881 -813 0
813 -872 0
-872 873 -881 0
827 -858 873 -874 0
-827 -858 873 -1231 0
858 -873 0
827 -873 874 0
-827 -873 1231 0
-825 874 -1230 0
825 874 -875 0
-825 -874 1230 0
825 -874 875 0
875 876 810 880 0
875 876 810 -879 0
-810 -875 0
-875 -876 0
-875 879 -880 0
876 -878 1520 -1831 0
876 877 1520 1831 0
-876 -1520 0
-876 878 -1831 0
-876 -877 1831 0
877 -1227 -790 0
-877 1227 0
790 -877 0
-831 878 1228 0
831 877 878 0
-831 -878 -1228 0
831 -877 -878 0
-833 878 879 0
833 -879 0
-878 -879 0
880 1229 -1520 0
834 880 -1520 0
-880 1520 0
-834 -880 -1229 0
874 881 -948 0
860 875 881 0
874 875 881 0
860 881 -948 0
-860 -874 -881 0
-875 -881 948 0
882 889 -813 0
882 883 -813 -886 0
813 -882 0
-882 -883 -889 0
-882 886 -889 0
883 -885 1520 -1831 0
883 884 1520 1831 0
-883 -1520 0
-883 885 -1831 0
-883 -884 1831 0
884 -1804 -790 0
-884 1804 0
790 -884 0
-831 885 1805 0
831 884 885 0
-831 -885 -1805 0
831 -884 -885 0
886 -887 888 0
-833 885 886 -887 0
-886 887 0
833 -886 -888 0
-885 -886 -888 0
845 887 810 0
-810 -887 0
-845 -887 0
834 888 -1520 0
888 -1520 1806 0
-888 1520 0
-834 -888 -1806 0
827 889 890 0
858 889 890 0
889 890 1808 0
-889 -890 0
-827 -858 -889 -1808 0
-825 890 -891 -1807 0
-890 1807 0
825 -890 0
-890 891 0
-846 891 -948 0
-891 948 0
846 -891 0
892 -893 -813 0
892 901 -813 0
813 -892 0
-892 893 -901 0
827 -858 893 -894 0
-827 -858 893 -1803 0
858 -893 0
827 -893 894 0
-827 -893 1803 0
-825 894 -1802 0
825 894 -895 0
-825 -894 1802 0
825 -894 895 0
895 896 810 900 0
895 896 810 -899 0
-810 -895 0
-895 -896 0
-895 899 -900 0
896 -898 1520 -1831 0
896 897 1520 1831 0
-896 -1520 0
-896 898 -1831 0
-896 -897 1831 0
897 -1799 -790 0
-897 1799 0
790 -897 0
-831 898 1800 0
831 897 898 0
-831 -898 -1800 0
831 -897 -898 0
-833 898 899 0
833 -899 0
-898 -899 0
834 900 -1520 0
900 -1520 1801 0
-900 1520 0
-834 -900 -1801 0
894 901 -948 0
860 895 901 0
894 895 901 0
860 901 -948 0
-860 -894 -901 0
-895 -901 948 0
902 908 -813 0
902 903 -813 -906 0
813 -902 0
-902 -903 -908 0
-902 906 -908 0
903 -905 1520 -1831 0
903 904 1520 1831 0
-903 -1520 0
-903 905 -1831 0
-903 -904 1831 0
904 -1219 -790 0
-904 1219 0
790 -904 0
-831 905 1220 0
831 904 905 0
-831 -905 -1220 0
831 -904 -905 0
-887 906 907 0
-833 -887 905 906 0
887 -906 0
833 -906 -907 0
-905 -906 -907 0
907 1221 -1520 0
834 907 -1520 0
-907 1520 0
-834 -907 -1221 0
827 908 909 0
858 908 909 0
908 909 1223 0
-908 -909 0
-827 -858 -908 -1223 0
-825 -891 909 -1222 0
-909 1222 0
825 -909 0
891 -909 0
915 -789 910 0
911 -789 910 0
789 -910 0
-910 -911 -915 0
862 911 -850 -912 2166 0
-862 911 -850 -912 -2166 0
-911 912 0
862 -2166 -911 0
850 -911 0
-862 2166 -911 0
912 -913 -914 2448 0
-902 912 -913 -914 0
-912 914 0
-912 913 0
902 -2448 -912 0
-861 913 -823 2419 0
861 913 -823 -2419 0
823 -913 0
-861 -2419 -913 0
861 2419 -913 0
-882 902 914 -2439 0
882 902 914 2439 0
882 914 2439 -2448 0
-882 914 -2439 -2448 0
882 -2439 -914 0
-882 2439 -914 0
-902 2448 -914 0
-872 892 915 -1889 2434 0
872 -892 915 1889 -2434 0
872 892 915 1889 2434 0
-872 -892 915 -1889 -2434 0
872 -1889 -915 0
-872 1889 -915 0
-892 2434 -915 0
892 -2434 -915 0
-902 916 -789 0
817 916 -789 0
789 -916 0
-817 902 -916 0
-892 917 -789 0
818 917 -789 0
789 -917 0
-818 892 -917 0
-882 918 -789 0
819 918 -789 0
789 -918 0
-819 882 -918 0
-872 919 -789 0
820 919 -789 0
789 -919 0
-820 872 -919 0
-862 920 -789 0
821 920 -789 0
789 -920 0
-821 862 -920 0
861 921 -789 0
822 921 -789 0
789 -921 0
-861 -921 -822 0
822 922 -789 0
789 -922 0
-822 -922 0
902 923 -789 0
817 923 -789 0
789 -923 0
-817 -902 -923 0
892 924 -789 0
818 924 -789 0
789 -924 0
-818 -892 -924 0
882 925 -789 0
819 925 -789 0
789 -925 0
-819 -882 -925 0
872 926 -789 0
820 926 -789 0
789 -926 0
-820 -872 -926 0
862 927 -789 0
821 927 -789 0
789 -927 0
-821 -862 -927 0
-861 928 -789 0
822 928 -789 0
789 -928 0
861 -928 -822 0
1 788 0
-1 -788 0
2 788 0
-2 -788 0
3 910 0
-3 -910 0
97 -916 0
-97 916 0
98 -917 0
-98 917 0
99 -918 0
-99 918 0
100 -919 0
-100 919 0
104 -920 0
-104 920 0
126 -921 0
-126 921 0
298 -922 0
-298 922 0
489 -923 0
-489 923 0
490 -924 0
-490 924 0
491 -925 0
-491 925 0
492 -926 0
-492 926 0
496 -927 0
-496 927 0
518 -928 0
-518 928 0
690 -922 0
-690 922 0
-97 -489 2881 0
97 -2881 0
489 -2881 0
97 -1519 0
-97 1519 0
-98 -490 2882 0
98 -2882 0
490 -2882 0
98 -1505 0
-98 1505 0
-99 -491 2883 0
99 -2883 0
491 -2883 0
99 -1510 0
-99 1510 0
-100 -492 2884 0
100 -2884 0
492 -2884 0
100 -960 0
-100 960 0
-104 -496 2888 0
104 -2888 0
496 -2888 0
104 -1237 0
-104 1237 0
-126 -518 2910 0
126 -2910 0
518 -2910 0
126 -1490 0
-126 1490 0
-298 -690 3082 0
298 -3082 0
690 -3082 0
298 -1093 0
-298 1093 0
-1 0
-2 0
3 0
4 0
5 0
6 0
7 0
8 0
9 0
10 0
11 0
12 0
13 0
14 0
15 0
16 0
17 0
18 0
19 0
20 0
21 0
22 0
23 0
24 0
25 0
26 0
27 0
28 0
29 0
30 0
31 0
32 0
33 0
34 0
35 0
36 0
37 0
38 0
39 0
40 0
41 0
42 0
43 0
44 0
45 0
46 0
47 0
48 0
49 0
50 0
51 0
52 0
53 0
54 0
55 0
56 0
57 0
58 0
59 0
60 0
61 0
62 0
63 0
64 0
65 0
66 0
67 0
68 0
69 0
70 0
71 0
72 0
73 0
74 0
75 0
76 0
77 0
78 0
79 0
80 0
81 0
82 0
83 0
84 0
85 0
86 0
87 0
88 0
89 0
90 0
91 0
92 0
93 0
94 0
95 0
96 0
101 0
102 0
103 0
105 0
106 0
107 0
108 0
109 0
110 0
111 0
112 0
113 0
114 0
115 0
116 0
117 0
118 0
119 0
120 0
121 0
122 0
123 0
124 0
125 0
127 0
128 0
129 0
130 0
131 0
132 0
133 0
134 0
135 0
136 0
137 0
138 0
139 0
140 0
141 0
142 0
143 0
144 0
145 0
146 0
147 0
148 0
149 0
150 0
151 0
152 0
153 0
154 0
155 0
156 0
157 0
158 0
159 0
160 0
161 0
162 0
163 0
164 0
165 0
166 0
167 0
168 0
169 0
170 0
171 0
172 0
173 0
174 0
175 0
176 0
177 0
178 0
179 0
180 0
181 0
182 0
183 0
184 0
185 0
186 0
187 0
188 0
189 0
190 0
191 0
192 0
193 0
194 0
195 0
196 0
197 0
198 0
199 0
200 0
201 0
202 0
203 0
204 0
205 0
206 0
207 0
208 0
209 0
210 0
211 0
212 0
213 0
214 0
215 0
216 0
217 0
218 0
219 0
220 0
221 0
222 0
223 0
224 0
225 0
226 0
227 0
228 0
229 0
230 0
231 0
232 0
233 0
234 0
235 0
236 0
237 0
238 0
239 0
240 0
241 0
242 0
243 0
-244 0
245 0
246 0
247 0
248 0
249 0
250 0
251 0
252 0
253 0
254 0
255 0
256 0
257 0
258 0
259 0
260 0
261 0
262 0
263 0
264 0
265 0
266 0
267 0
268 0
269 0
270 0
271 0
272 0
273 0
274 0
275 0
276 0
277 0
278 0
279 0
280 0
281 0
282 0
283 0
284 0
285 0
286 0
287 0
288 0
289 0
290 0
291 0
292 0
293 0
294 0
295 0
296 0
297 0
-298 0
299 0
300 0
301 0
302 0
303 0
304 0
305 0
306 0
-307 0
308 0
309 0
310 0
311 0
312 0
313 0
314 0
315 0
316 0
317 0
318 0
319 0
320 0
321 0
322 0
323 0
324 0
325 0
326 0
327 0
328 0
329 0
330 0
331 0
332 0
333 0
334 0
-335 0
336 0
337 0
338 0
339 0
340 0
341 0
342 0
343 0
344 0
345 0
346 0
347 0
348 0
349 0
350 0
351 0
352 0
353 0
354 0
355 0
356 0
357 0
358 0
359 0
360 0
361 0
362 0
363 0
364 0
365 0
366 0
367 0
368 0
369 0
370 0
371 0
372 0
373 0
374 0
375 0
376 0
377 0
378 0
379 0
380 0
381 0
382 0
383 0
384 0
385 0
386 0
387 0
388 0
389 0
390 0
391 0
392 0
393 0
394 0
395 0
-396 0
-397 0
-398 0
-399 0
-400 0
-401 0
-402 0
-403 0
-404 0
-405 0
-406 0
-407 0
-408 0
-409 0
-410 0
-411 0
-412 0
-413 0
-414 0
-415 0
-416 0
-417 0
-418 0
-419 0
-420 0
-421 0
-422 0
-423 0
-424 0
-425 0
-426 0
-427 0
-428 0
-429 0
-430 0
-431 0
-432 0
-433 0
-434 0
-435 0
-436 0
-437 0
-438 0
-439 0
-440 0
-441 0
-442 0
-443 0
-444 0
-445 0
-446 0
-447 0
-448 0
-449 0
-450 0
-451 0
-452 0
-453 0
-454 0
-455 0
-456 0
-457 0
-458 0
-459 0
-460 0
-461 0
-462 0
-463 0
-464 0
-465 0
-466 0
-467 0
-468 0
-469 0
-470 0
-471 0
-472 0
-473 0
-474 0
-475 0
-476 0
-477 0
-478 0
-479 0
-480 0
-481 0
-482 0
-483 0
-484 0
-485 0
-486 0
-487 0
-488 0
-493 0
-494 0
-495 0
-497 0
-498 0
-499 0
-500 0
-501 0
-502 0
-503 0
-504 0
-505 0
-506 0
-507 0
-508 0
-509 0
-510 0
-511 0
-512 0
-513 0
-514 0
-515 0
-516 0
-517 0
-519 0
-520 0
-521 0
-522 0
-523 0
-524 0
-525 0
-526 0
-527 0
-528 0
-529 0
-530 0
-531 0
-532 0
-533 0
-534 0
-535 0
-536 0
-537 0
-538 0
-539 0
-540 0
-541 0
-542 0
-543 0
-544 0
-545 0
-546 0
-547 0
-548 0
-549 0
-550 0
-551 0
-552 0
-553 0
-554 0
-555 0
-556 0
-557 0
-558 0
-559 0
-560 0
-561 0
-562 0
-563 0
-564 0
-565 0
-566 0
-567 0
-568 0
-569 0
-570 0
-571 0
-572 0
-573 0
-574 0
-575 0
-576 0
-577 0
-578 0
-579 0
-580 0
-581 0
-582 0
-583 0
-584 0
-585 0
-586 0
-587 0
-588 0
-589 0
-590 0
-591 0
-592 0
-593 0
-594 0
-595 0
-596 0
-597 0
-598 0
-599 0
-600 0
-601 0
-602 0
-603 0
-604 0
-605 0
-606 0
-607 0
-608 0
-609 0
-610 0
-611 0
-612 0
-613 0
-614 0
-615 0
-616 0
-617 0
-618 0
-619 0
-620 0
-621 0
-622 0
-623 0
-624 0
-625 0
-626 0
-627 0
-628 0
-629 0
-630 0
-631 0
-632 0
-633 0
-634 0
-635 0
636 0
-637 0
-638 0
-639 0
-640 0
-641 0
-642 0
-643 0
-644 0
-645 0
-646 0
-647 0
-648 0
-649 0
-650 0
-651 0
-652 0
-653 0
-654 0
-655 0
-656 0
-657 0
-658 0
-659 0
-660 0
-661 0
-662 0
-663 0
-664 0
-665 0
-666 0
-667 0
-668 0
-669 0
-670 0
-671 0
-672 0
-673 0
-674 0
-675 0
-676 0
-677 0
-678 0
-679 0
-680 0
-681 0
-682 0
-683 0
-684 0
-685 0
-686 0
-687 0
-688 0
-689 0
-690 0
-691 0
-692 0
-693 0
-694 0
-695 0
-696 0
-697 0
-698 0
699 0
-700 0
-701 0
-702 0
-703 0
-704 0
-705 0
-706 0
-707 0
-708 0
-709 0
-710 0
-711 0
-712 0
-713 0
-714 0
-715 0
-716 0
-717 0
-718 0
-719 0
-720 0
-721 0
-722 0
-723 0
-724 0
-725 0
-726 0
727 0
-728 0
-729 0
-730 0
-731 0
-732 0
-733 0
-734 0
-735 0
-736 0
-737 0
-738 0
-739 0
-740 0
-741 0
-742 0
-743 0
-744 0
-745 0
-746 0
-747 0
-748 0
-749 0
-750 0
-751 0
-752 0
-753 0
-754 0
-755 0
-756 0
-757 0
-758 0
-759 0
-760 0
-761 0
-762 0
-763 0
-764 0
-765 0
-766 0
-767 0
-768 0
-769 0
-770 0
-771 0
-772 0
-773 0
-774 0
-775 0
-776 0
-777 0
-778 0
-779 0
-780 0
-781 0
-782 0
-783 0
-784 0
-785 0
-786 0
-787 0
788 0
789 0
790 0
-791 0
795 0
-796 0
-800 0
804 0
805 0
-810 0
813 0
814 0
815 0
816 0
822 0
823 0
836 0
844 0
850 0
-910 0
911 0
912 0
913 0
914 0
915 0
-922 0
953 0
954 0
955 0
956 0
957 0
958 0
959 0
961 0
962 0
963 0
964 0
993 0
1044 0
1045 0
1046 0
1047 0
1048 0
1049 0
1050 0
1051 0
1052 0
1053 0
1054 0
1055 0
1056 0
1057 0
1058 0
1059 0
1060 0
1061 0
1062 0
1063 0
1064 0
-1065 0
1066 0
1067 0
1068 0
1069 0
1070 0
1071 0
1072 0
1073 0
1074 0
1075 0
1076 0
1077 0
1078 0
1079 0
1080 0
1081 0
1082 0
1083 0
1084 0
1085 0
1086 0
1087 0
1088 0
1089 0
1090 0
1091 0
1092 0
-1093 0
1094 0
1095 0
1096 0
1097 0
1098 0
1099 0
1100 0
1101 0
1102 0
1103 0
1104 0
1105 0
1106 0
1107 0
1108 0
1109 0
1110 0
1111 0
1112 0
1113 0
1114 0
1115 0
1116 0
1117 0
1118 0
1119 0
1120 0
1121 0
1122 0
1123 0
1124 0
1125 0
1126 0
1127 0
1128 0
1129 0
1130 0
1131 0
1132 0
1133 0
1134 0
1135 0
1165 0
-1232 0
1233 0
1234 0
1235 0
1236 0
1238 0
1239 0
1240 0
1241 0
1242 0
1243 0
1244 0
1245 0
1246 0
1247 0
1248 0
1249 0
1250 0
1251 0
1252 0
1253 0
1254 0
1255 0
1256 0
1257 0
1258 0
1259 0
1260 0
1261 0
1262 0
1263 0
1264 0
1265 0
1266 0
1267 0
1268 0
1269 0
1270 0
1271 0
1272 0
1273 0
1274 0
1275 0
1276 0
1277 0
1278 0
1279 0
1280 0
1281 0
1282 0
1283 0
1284 0
1285 0
1286 0
1287 0
1288 0
1289 0
1290 0
1291 0
1292 0
1293 0
1294 0
-1295 0
1296 0
1297 0
1298 0
1299 0
1300 0
1301 0
1302 0
1303 0
1304 0
1305 0
1306 0
1307 0
1308 0
1309 0
1310 0
1311 0
1312 0
1313 0
1314 0
1315 0
1316 0
1317 0
1318 0
1319 0
1320 0
1321 0
1322 0
1323 0
1324 0
1325 0
1326 0
1327 0
1328 0
1329 0
1330 0
1331 0
1332 0
1333 0
1334 0
1335 0
1336 0
1337 0
1338 0
1339 0
1340 0
1341 0
1342 0
1343 0
1344 0
1345 0
1346 0
1347 0
1348 0
1349 0
1350 0
1351 0
1352 0
1353 0
1354 0
1355 0
1356 0
1357 0
1358 0
1359 0
1360 0
1361 0
1362 0
1363 0
1364 0
1365 0
1366 0
1367 0
1368 0
1369 0
1370 0
1371 0
1372 0
1373 0
1374 0
1375 0
1376 0
1377 0
1378 0
1379 0
1380 0
1381 0
1382 0
1383 0
1384 0
1385 0
1386 0
1387 0
1388 0
1389 0
1390 0
1391 0
1392 0
1393 0
1394 0
1395 0
1396 0
1397 0
1398 0
1399 0
1400 0
1401 0
1402 0
1403 0
1404 0
1405 0
1406 0
1407 0
1408 0
1409 0
1410 0
1411 0
1412 0
1413 0
1414 0
1415 0
1416 0
1417 0
1418 0
1419 0
1420 0
1421 0
1422 0
1423 0
1424 0
1425 0
1426 0
1427 0
1428 0
1429 0
1430 0
1431 0
1432 0
1433 0
1434 0
1435 0
1436 0
1437 0
1438 0
1439 0
1440 0
1441 0
1442 0
1443 0
1444 0
1445 0
1446 0
1447 0
1448 0
1449 0
1450 0
1451 0
1452 0
1453 0
1454 0
1455 0
1456 0
1457 0
1458 0
1459 0
1460 0
1461 0
1462 0
1463 0
1464 0
1465 0
1466 0
1467 0
1468 0
1469 0
1470 0
1471 0
1472 0
1473 0
1474 0
1475 0
1476 0
1477 0
1478 0
1479 0
1480 0
1481 0
1482 0
1483 0
1484 0
1485 0
1486 0
1487 0
1488 0
1489 0
1491 0
1492 0
1493 0
1494 0
1495 0
1496 0
1497 0
1498 0
1499 0
1500 0
1501 0
1502 0
1503 0
1504 0
1506 0
1507 0
1508 0
1509 0
1511 0
1512 0
1513 0
1514 0
1515 0
1516 0
1517 0
1518 0
1542 0
1550 0
1579 0
1593 0
1631 0
1660 0
1695 0
1724 0
1753 0
2787 0
-2788 0
-2789 0
-2790 0
-2791 0
-2792 0
-2793 0
-2794 0
-2795 0
-2796 0
-2797 0
-2798 0
-2799 0
-2800 0
-2801 0
-2802 0
-2803 0
-2804 0
-2805 0
-2806 0
-2807 0
-2808 0
-2809 0
-2810 0
-2811 0
-2812 0
-2813 0
-2814 0
-2815 0
-2816 0
-2817 0
-2818 0
-2819 0
-2820 0
-2821 0
-2822 0
-2823 0
-2824 0
-2825 0
-2826 0
-2827 0
-2828 0
-2829 0
-2830 0
-2831 0
-2832 0
-2833 0
-2834 0
-2835 0
-2836 0
-2837 0
-2838 0
-2839 0
-2840 0
-2841 0
-2842 0
-2843 0
-2844 0
-2845 0
-2846 0
-2847 0
-2848 0
-2849 0
-2850 0
-2851 0
-2852 0
-2853 0
-2854 0
-2855 0
-2856 0
-2857 0
-2858 0
-2859 0
-2860 0
-2861 0
-2862 0
-2863 0
-2864 0
-2865 0
-2866 0
-2867 0
-2868 0
-2869 0
-2870 0
-2871 0
-2872 0
-2873 0
-2874 0
-2875 0
-2876 0
-2877 0
-2878 0
-2879 0
-2880 0
-2885 0
-2886 0
-2887 0
-2889 0
-2890 0
-2891 0
-2892 0
-2893 0
-2894 0
-2895 0
-2896 0
-2897 0
-2898 0
-2899 0
-2900 0
-2901 0
-2902 0
-2903 0
-2904 0
-2905 0
-2906 0
-2907 0
-2908 0
-2909 0
-2911 0
-2912 0
-2913 0
-2914 0
-2915 0
-2916 0
-2917 0
-2918 0
-2919 0
-2920 0
-2921 0
-2922 0
-2923 0
-2924 0
-2925 0
-2926 0
-2927 0
-2928 0
-2929 0
-2930 0
-2931 0
-2932 0
-2933 0
-2934 0
-2935 0
-2936 0
-2937 0
-2938 0
-2939 0
-2940 0
-2941 0
-2942 0
-2943 0
-2944 0
-2945 0
-2946 0
-2947 0
-2948 0
-2949 0
-2950 0
-2951 0
-2952 0
-2953 0
-2954 0
-2955 0
-2956 0
-2957 0
-2958 0
-2959 0
-2960 0
-2961 0
-2962 0
-2963 0
-2964 0
-2965 0
-2966 0
-2967 0
-2968 0
-2969 0
-2970 0
-2971 0
-2972 0
-2973 0
-2974 0
-2975 0
-2976 0
-2977 0
-2978 0
-2979 0
-2980 0
-2981 0
-2982 0
-2983 0
-2984 0
-2985 0
-2986 0
-2987 0
-2988 0
-2989 0
-2990 0
-2991 0
-2992 0
-2993 0
-2994 0
-2995 0
-2996 0
-2997 0
-2998 0
-2999 0
-3000 0
-3001 0
-3002 0
-3003 0
-3004 0
-3005 0
-3006 0
-3007 0
-3008 0
-3009 0
-3010 0
-3011 0
-3012 0
-3013 0
-3014 0
-3015 0
-3016 0
-3017 0
-3018 0
-3019 0
-3020 0
-3021 0
-3022 0
-3023 0
-3024 0
-3025 0
-3026 0
-3027 0
-3028 0
-3029 0
-3030 0
-3031 0
-3032 0
-3033 0
-3034 0
-3035 0
-3036 0
-3037 0
-3038 0
-3039 0
-3040 0
-3041 0
-3042 0
-3043 0
-3044 0
-3045 0
-3046 0
-3047 0
-3048 0
-3049 0
-3050 0
-3051 0
-3052 0
-3053 0
-3054 0
-3055 0
-3056 0
-3057 0
-3058 0
-3059 0
-3060 0
-3061 0
-3062 0
-3063 0
-3064 0
-3065 0
-3066 0
-3067 0
-3068 0
-3069 0
-3070 0
-3071 0
-3072 0
-3073 0
-3074 0
-3075 0
-3076 0
-3077 0
-3078 0
-3079 0
-3080 0
-3081 0
-3082 0
-3083 0
-3084 0
-3085 0
-3086 0
-3087 0
-3088 0
-3089 0
-3090 0
-3091 0
-3092 0
-3093 0
-3094 0
-3095 0
-3096 0
-3097 0
-3098 0
-3099 0
-3100 0
-3101 0
-3102 0
-3103 0
-3104 0
-3105 0
-3106 0
-3107 0
-3108 0
-3109 0
-3110 0
-3111 0
-3112 0
-3113 0
-3114 0
-3115 0
-3116 0
-3117 0
-3118 0
-3119 0
-3120 0
-3121 0
-3122 0
-3123 0
-3124 0
-3125 0
-3126 0
-3127 0
-3128 0
-3129 0
-3130 0
-3131 0
-3132 0
-3133 0
-3134 0
-3135 0
-3136 0
-3137 0
-3138 0
-3139 0
-3140 0
-3141 0
-3142 0
-3143 0
-3144 0
-3145 0
-3146 0
-3147 0
-3148 0
-3149 0
-3150 0
-3151 0
-3152 0
-3153 0
-3154 0
-3155 0
-3156 0
-3157 0
-3158 0
-3159 0
-3160 0
-3161 0
-3162 0
-3163 0
-3164 0
-3165 0
-3166 0
-3167 0
-3168 0
-3169 0
-3170 0
-3171 0
-3172 0
-3173 0
-3174 0
-3175 0
-3176 0
-3177 0
-3178 0
-3179 0
-2546 0
-2547 0
-2548 0
-2549 0
-2550 0
-2551 0
-2552 0
-2553 0
-2554 0
-2555 0
-2556 0
-2557 0
-2558 0
-2559 0
-2560 0
-2561 0
-2562 0
-2563 0
-2564 0
-2565 0
-2566 0
-2567 0
-2568 0
-2569 0
-2570 0
-2571 0
-2572 0
-2573 0
-2574 0
-2575 0
-2576 0
-2577 0
-2578 0
-2579 0
-2580 0
-2581 0
-2582 0
-2583 0
-2584 0
-2585 0
-2586 0
-2587 0
-2588 0
-2589 0
-1894 0
-1895 0
-1896 0
-1897 0
-1898 0
-1899 0
-1900 0
-1901 0
-1902 0
-1903 0
-1904 0
-1905 0
-1906 0
-1907 0
-1908 0
-1909 0
-1910 0
-1911 0
-1912 0
-1913 0
-1914 0
-1915 0
-1916 0
-1917 0
-1918 0
-1919 0
-1920 0
-1921 0
-1922 0
-1923 0
-1924 0
-1925 0
-1926 0
-1927 0
-1928 0
-1929 0
-1930 0
-1931 0
-1932 0
-1933 0
-1934 0
-1935 0
-1936 0
-1937 0
-1938 0
-1939 0
-2613 0
-2614 0
-2615 0
-2616 0
-2617 0
-2618 0
-2619 0
-2620 0
-2621 0
-2622 0
-2623 0
-2624 0
-2625 0
-2626 0
-2627 0
-2628 0
-2629 0
-2630 0
-2631 0
-2632 0
-2633 0
-2634 0
-2635 0
-2636 0
-2637 0
-2638 0
-2639 0
-2640 0
-2641 0
-2642 0
-2643 0
-2644 0
-2645 0
-2646 0
-2647 0
-2648 0
-2649 0
-2650 0
-2651 0
-2652 0
-2653 0
-2654 0
-2655 0
-2656 0
-2657 0
-2658 0
-2659 0
-2660 0
-2661 0
-2662 0
-2663 0
-2664 0
-2665 0
-2666 0
-2667 0
-2668 0
-2669 0
-2670 0
-2671 0
-2672 0
-2673 0
-2674 0
-2675 0
-2676 0
-2677 0
-2678 0
-2679 0
-2680 0
-2681 0
-2682 0
-2683 0
-2684 0
-2685 0
-2686 0
-2687 0
-2688 0
-2689 0
-2690 0
-2691 0
-2692 0
-2693 0
-2694 0
-2695 0
-2696 0
-2697 0
-2698 0
-2699 0
-2700 0
-2701 0
-2702 0
-2703 0
-2704 0
-2705 0
-2706 0
-2707 0
-2708 0
-2709 0
-2710 0
-2711 0
-2712 0
-2713 0
-2714 0
-2715 0
-2716 0
-2449 0
-2717 0
-2718 0
-1940 0
-1941 0
-1942 0
-1943 0
-2719 0
-1944 0
-1968 0
-1969 0
-1970 0
-1971 0
-1972 0
-2065 0
-2066 0
-2067 0
-2068 0
-2069 0
-2070 0
-2071 0
-2072 0
-2073 0
-2074 0
-2075 0
-2076 0
-2077 0
-2078 0
-2079 0
-2080 0
-2720 0
-2721 0
-2081 0
-2082 0
-2083 0
-2722 0
-2084 0
-2723 0
-2085 0
-2086 0
-2087 0
-2452 0
-2453 0
-2454 0
-2455 0
-2450 0
-2456 0
-2457 0
-2458 0
-2459 0
-2460 0
-2461 0
-2462 0
-2463 0
-2464 0
-2465 0
-2724 0
-2725 0
-2466 0
-2467 0
-2726 0
-2468 0
-2727 0
-2469 0
-2470 0
-2471 0
-2472 0
-2473 0
-2474 0
-2590 0
-2591 0
-2592 0
-2593 0
-2594 0
-2595 0
-2596 0
-2597 0
-2728 0
-2598 0
-2599 0
-2600 0
-2601 0
-2602 0
-2603 0
-2604 0
-2729 0
-2730 0
-2605 0
-2731 0
-2606 0
-2732 0
-2607 0
-2608 0
-2609 0
-2610 0
-2611 0
-2451 0
-2612 0
-2521 0
-2522 0
-2523 0
-2524 0
-2525 0
-2526 0
-2527 0
-2528 0
-2733 0
-2529 0
-2530 0
-2531 0
-2532 0
-2533 0
-2734 0
-2534 0
-2735 0
-2535 0
-2536 0
-2537 0
-2538 0
-2736 0
-2737 0
-2539 0
-2540 0
-2541 0
-2542 0
-2543 0
-1945 0
-1946 0
-1947 0
-1948 0
-1949 0
-1950 0
-1951 0
-1952 0
-1953 0
-1954 0
-2738 0
-1955 0
-2145 0
-1956 0
-1957 0
-1958 0
-2146 0
-1959 0
-2147 0
-1960 0
-2119 0
-1961 0
-1962 0
-1963 0
-1964 0
-1965 0
-1966 0
-1967 0
-2122 0
-2123 0
-2124 0
-2125 0
-2126 0
-2127 0
-2148 0
-2128 0
-2129 0
-2130 0
-2149 0
-2131 0
-2150 0
-2132 0
-2133 0
-2151 0
-2152 0
-2134 0
-2135 0
-2136 0
-2137 0
-2138 0
-2139 0
-2140 0
-2141 0
-2142 0
-2143 0
-2144 0
-2739 0
-2153 0
-2154 0
-2740 0
-2741 0
-2742 0
-2743 0
-2155 0
-2744 0
-2745 0
-2746 0
-2747 0
-2748 0
-2749 0
-2750 0
-2751 0
-2752 0
-2753 0
-2754 0
-2755 0
-2756 0
-2757 0
-2758 0
-2156 0
-2759 0
-2760 0
-2761 0
-1858 0
-2157 0
-1859 0
-2158 0
-1860 0
-2159 0
-2160 0
-1861 0
-1862 0
-1863 0
-1864 0
-1865 0
-1866 0
-1867 0
-1868 0
-1869 0
-1870 0
-1871 0
-1872 0
-1873 0
-1874 0
-1875 0
-2120 0
-1876 0
-1877 0
-1878 0
-1879 0
-1880 0
-1881 0
-2762 0
-2763 0
-2764 0
-2765 0
-2766 0
-2767 0
-2768 0
-2769 0
-2770 0
-2771 0
-2772 0
-2773 0
-2774 0
-2775 0
-2776 0
-2777 0
-2778 0
-2779 0
-2780 0
-2781 0
-2782 0
-2783 0
-2784 0
-2785 0
-2786 0
-2088 0
-2089 0
-2090 0
-2091 0
-2092 0
-2093 0
-2094 0
-2095 0
-2121 0
-2096 0
-2097 0
-2098 0
-2099 0
-2100 0
-2101 0
-2102 0
-2103 0
-2104 0
-2105 0
-2106 0
-2107 0
-2108 0
-2109 0
-2110 0
-2111 0
-2112 0
-2113 0
-2114 0
-2115 0
-2116 0
-2117 0
-2118 0
-2475 0
-2476 0
-2477 0
-2478 0
-2479 0
-2480 0
-2481 0
-2482 0
-2483 0
-2484 0
-2485 0
-2486 0
-2487 0
-2488 0
-2489 0
-2490 0
-2491 0
-2492 0
-2493 0
-2494 0
-2495 0
-2496 0
-2497 0
-2498 0
-2499 0
-2500 0
-2501 0
-2502 0
-2503 0
-2504 0
-2505 0
-2506 0
-2507 0
-2508 0
-2509 0
-2510 0
-2511 0
-2512 0
-2513 0
-2514 0
-2515 0
-2516 0
-2517 0
-2518 0
-2519 0
-2520 0
-2544 0
-2545 0

